70
947
4
67
62
18
11
0 2
0 3
0 4
0 6
0 8
0 10
0 13
0 19
0 20
0 23
0 25
0 29
0 37
0 38
0 41
0 46
0 49
0 50
0 53
0 54
0 56
0 61
0 62
0 63
0 64
0 65
0 66
0 67
1 3
1 7
1 10
1 11
1 12
1 14
1 15
1 18
1 20
1 23
1 29
1 31
1 32
1 38
1 39
1 43
1 45
1 46
1 47
1 51
1 52
1 53
1 55
1 56
1 57
1 60
1 62
1 63
2 3
2 4
2 7
2 9
2 12
2 13
2 23
2 24
2 26
2 28
2 30
2 31
2 32
2 35
2 37
2 39
2 41
2 47
2 49
2 50
2 53
2 55
2 59
2 61
2 63
2 65
2 66
2 68
2 69
3 4
3 6
3 8
3 11
3 13
3 15
3 21
3 25
3 28
3 29
3 30
3 33
3 34
3 35
3 37
3 39
3 41
3 47
3 50
3 56
3 59
3 64
3 66
3 69
4 5
4 10
4 14
4 15
4 19
4 23
4 25
4 26
4 27
4 30
4 31
4 33
4 38
4 41
4 42
4 44
4 46
4 47
4 49
4 53
4 54
4 56
4 61
4 62
4 65
4 68
5 7
5 13
5 15
5 19
5 23
5 29
5 31
5 33
5 34
5 35
5 36
5 43
5 46
5 48
5 49
5 51
5 52
5 55
5 59
5 61
5 62
5 64
5 65
5 66
5 67
6 8
6 11
6 12
6 13
6 14
6 20
6 21
6 22
6 24
6 25
6 28
6 29
6 30
6 31
6 32
6 36
6 37
6 38
6 45
6 46
6 47
6 48
6 49
6 51
6 53
6 55
6 56
6 58
6 60
6 61
6 65
6 68
7 11
7 12
7 13
7 20
7 22
7 23
7 25
7 26
7 28
7 33
7 36
7 38
7 39
7 42
7 45
7 47
7 50
7 53
7 59
7 64
8 11
8 12
8 15
8 18
8 21
8 25
8 27
8 28
8 29
8 30
8 35
8 40
8 42
8 43
8 47
8 48
8 49
8 52
8 56
8 57
8 59
8 62
8 66
9 16
9 18
9 19
9 20
9 22
9 24
9 25
9 32
9 34
9 35
9 38
9 39
9 41
9 43
9 46
9 47
9 48
9 50
9 51
9 53
9 55
9 57
9 59
9 60
9 63
10 11
10 15
10 19
10 25
10 27
10 29
10 30
10 32
10 35
10 37
10 41
10 42
10 46
10 48
10 54
10 55
10 60
10 62
10 63
10 64
10 65
11 14
11 21
11 23
11 24
11 25
11 27
11 28
11 29
11 30
11 31
11 39
11 42
11 49
11 50
11 52
11 53
11 57
11 58
11 59
11 63
11 65
11 68
12 13
12 19
12 22
12 23
12 25
12 26
12 32
12 33
12 36
12 38
12 43
12 45
12 47
12 54
12 56
12 57
12 59
12 60
12 64
12 65
12 66
12 67
12 68
13 14
13 20
13 25
13 29
13 34
13 35
13 38
13 39
13 41
13 43
13 44
13 45
13 46
13 48
13 55
13 59
14 15
14 17
14 24
14 25
14 27
14 30
14 31
14 35
14 37
14 41
14 42
14 44
14 46
14 48
14 53
14 54
14 56
14 59
14 65
14 69
15 16
15 18
15 21
15 22
15 27
15 30
15 32
15 34
15 35
15 44
15 47
15 48
15 49
15 53
15 54
15 58
15 59
15 60
15 64
15 67
16 17
16 18
16 20
16 22
16 27
16 28
16 29
16 30
16 37
16 42
16 44
16 45
16 47
16 49
16 53
16 55
16 57
16 59
16 60
16 61
16 63
16 67
16 68
16 69
17 18
17 22
17 25
17 30
17 33
17 34
17 35
17 36
17 37
17 39
17 40
17 41
17 53
17 55
17 57
17 58
17 59
17 65
17 67
18 19
18 20
18 23
18 24
18 30
18 32
18 34
18 36
18 37
18 45
18 47
18 49
18 50
18 51
18 54
18 55
18 57
18 59
18 63
18 64
18 65
18 68
18 69
19 20
19 25
19 26
19 27
19 29
19 30
19 31
19 32
19 34
19 36
19 37
19 38
19 40
19 43
19 47
19 54
19 55
19 58
19 61
19 66
19 69
20 21
20 24
20 25
20 29
20 32
20 33
20 35
20 36
20 37
20 38
20 39
20 42
20 45
20 49
20 52
20 55
20 56
20 58
20 63
20 65
20 69
21 25
21 27
21 29
21 30
21 31
21 33
21 36
21 40
21 43
21 45
21 46
21 48
21 50
21 51
21 57
21 63
21 65
21 67
21 68
22 23
22 24
22 25
22 29
22 33
22 36
22 41
22 42
22 46
22 54
22 56
22 57
22 59
22 60
22 62
22 65
22 66
22 69
23 29
23 32
23 35
23 36
23 41
23 42
23 51
23 56
23 58
23 64
23 67
23 68
24 27
24 28
24 34
24 35
24 36
24 41
24 44
24 49
24 52
24 55
24 60
24 61
24 65
24 66
25 27
25 28
25 32
25 33
25 37
25 40
25 47
25 50
25 52
25 53
25 59
25 60
25 61
25 62
25 64
25 67
25 68
26 29
26 31
26 33
26 34
26 35
26 39
26 40
26 42
26 44
26 45
26 52
26 53
26 54
26 60
26 63
26 67
26 68
27 29
27 30
27 31
27 33
27 34
27 37
27 42
27 43
27 45
27 48
27 50
27 52
27 53
27 56
27 59
27 62
27 63
27 65
27 69
28 29
28 31
28 33
28 37
28 39
28 40
28 41
28 42
28 43
28 44
28 51
28 53
28 54
28 58
28 60
28 61
28 64
28 66
29 33
29 34
29 35
29 48
29 49
29 50
29 51
29 52
29 53
29 57
29 62
29 63
29 66
29 68
30 31
30 32
30 33
30 34
30 35
30 36
30 40
30 43
30 45
30 46
30 47
30 50
30 54
30 59
30 60
30 66
30 69
31 32
31 34
31 40
31 41
31 43
31 46
31 47
31 50
31 55
31 56
31 57
31 58
31 59
31 61
31 62
31 64
31 66
31 69
32 35
32 38
32 39
32 41
32 45
32 47
32 48
32 49
32 51
32 53
32 54
32 55
32 59
32 61
32 62
32 64
32 66
32 67
33 37
33 38
33 40
33 42
33 47
33 53
33 55
33 58
33 60
33 62
33 65
33 66
34 35
34 36
34 39
34 40
34 41
34 46
34 48
34 49
34 50
34 53
34 56
34 59
34 61
34 62
34 63
34 65
34 66
34 67
34 69
35 37
35 38
35 39
35 40
35 41
35 43
35 45
35 46
35 49
35 53
35 56
35 57
35 58
35 61
35 62
35 65
35 67
36 38
36 39
36 40
36 42
36 46
36 48
36 49
36 51
36 55
36 58
36 61
36 65
36 68
37 38
37 40
37 41
37 42
37 44
37 45
37 46
37 47
37 51
37 54
37 57
37 64
37 66
38 40
38 42
38 48
38 49
38 54
38 55
38 56
38 58
38 61
38 62
38 65
38 66
38 67
38 68
38 69
39 46
39 47
39 51
39 56
39 58
39 61
39 62
39 65
39 66
39 67
40 43
40 48
40 49
40 50
40 51
40 60
40 61
40 62
40 64
40 67
41 43
41 49
41 54
41 55
41 58
41 59
41 62
41 64
41 68
41 69
42 45
42 48
42 54
42 55
42 62
42 65
42 66
43 46
43 54
43 56
43 58
43 68
43 69
44 45
44 47
44 49
44 55
44 59
44 60
44 61
44 63
44 64
44 67
45 47
45 48
45 49
45 52
45 60
45 62
45 65
45 66
45 69
46 47
46 51
46 52
46 53
46 56
46 58
46 59
46 62
46 65
46 68
47 50
47 54
47 55
47 62
47 65
47 66
47 67
47 68
48 49
48 50
48 54
48 61
48 63
49 52
49 57
49 59
49 63
49 64
49 65
49 67
49 68
50 52
50 55
50 57
50 60
50 64
50 68
51 52
51 55
51 57
51 58
51 61
51 63
51 67
52 55
52 56
52 57
52 62
52 63
52 65
52 66
52 67
52 68
53 55
53 64
53 65
53 66
53 69
54 59
54 60
54 62
54 64
54 67
55 57
55 59
55 60
55 62
55 64
56 58
56 59
56 61
56 62
56 66
56 67
57 58
57 59
57 60
57 63
58 61
58 62
58 66
59 61
59 64
59 68
59 69
60 62
60 63
61 64
61 66
61 67
61 69
62 64
62 65
62 66
62 67
62 69
63 64
63 68
64 65
64 68
64 69
65 68
66 67
67 68
67 69
63 34 25 67 11 16 52 0 46 3 31 56 24 13 39 69 40 68 57 43 10
35 41 27 32 30 23 4 59 19 38 45 12 51 33 50 48 65 42 1 15 49
36 54 8 7 9 37 2 18 44 60 22 66 62 29 6 55 47 14 26 64 53
20 17 5 21 28 58 61
